20	5
0	7	2	4	3	7	5	1	6
1	0
2	2	21	17
3	3	19	9	16
4	0
5	2	12	14
6	2	13	15
7	3	11	20	13
8	2	10	19
9	2	15	13
10	1	16
11	3	14	12	17
12	2	10	19
13	1	21
14	1	21
15	1	21
16	1	21
17	1	21
18	1	21
19	1	21
20	1	21
21	0
0	0	0	0	0	0	0
1	6	5	0	1	0	3
2	10	0	0	5	0	0
3	5	0	0	5	4	1
4	4	1	1	0	2	0
5	5	0	4	0	0	0
6	5	0	3	0	4	0
7	2	0	0	3	1	0
8	1	1	5	0	1	1
9	4	0	0	4	5	2
10	1	0	5	0	2	0
11	4	0	0	1	0	2
12	7	3	4	1	1	1
13	2	5	0	5	5	0
14	7	2	0	5	0	0
15	4	0	5	4	0	0
16	7	0	0	5	1	0
17	5	2	3	3	4	2
18	2	0	0	0	4	2
19	7	2	0	0	4	0
20	3	0	0	0	0	2
21	0	0	0	0	0	0
5	5	5	5	5
